#=================================
#Created using the Crystal Graph
#=================================
lattice_vector 9.95208772 -0.04724824 -0.03465793
lattice_vector 0.04031599 8.55117485 -0.00953377
lattice_vector 0.03164038 0.00966592 9.17743912
atom 1.6088879366699997 7.27641621815 6.38315519129 Ga
atom 6.5849317966699985 7.2527920981500005 6.36582622629 Al
atom 3.435758413049999 1.25977584433 1.7946126469900001 Al
atom 8.411802273049997 1.2361517243299998 1.7772836819900002 Ga
atom 0.95588031303 2.9989252240300006 1.8013513079500005 Ga
atom 5.93192417303 2.97530110403 1.7840223429500002 Al
atom 4.088766036689999 5.537266838450002 6.37641653033 Al
atom 9.06480989669 5.513642718450002 6.35908756533 Al
atom 0.91723977236 5.622444333820001 -0.009375105395 Al
atom 5.893283632359998 5.598820213820001 -0.026704070395000005 Ga
atom 4.114940267640001 2.90993935618 4.571231930395 Ga
atom 9.090984127639999 2.88631523618 4.553902965395 Al
atom 1.6195001954799992 1.3483352437800005 4.5816506265750006 Al
atom 6.595544055479999 1.3247111237800004 4.564321661575001 Ga
atom 3.44432022452 7.193714366219999 9.157645318425 Al
atom 8.420364084520001 7.17009024622 9.140316353425003 Ga
atom 0.8687935877999998 0.26222264742 9.16506440166 Ga
atom 5.8448374478 0.23859852741999998 9.147735436660001 Al
atom 4.19496355144 8.27980763074 4.5558766651000004 Ga
atom 9.171007411439998 8.25618351074 4.5385477001000005 Al
atom 1.6892025858400002 4.529102756740002 4.5687360064 Ga
atom 6.6652464458399985 4.505478636740002 4.5514070414 Al
atom 3.3745545534 4.01292752142 9.15220506036 Al
atom 8.350598413399998 3.9893034014199995 9.134876095360001 Al
atom 3.4398206335899992 1.3339590082900001 7.209277444525001 Ga
atom 8.41586449359 1.31033488829 7.191948479525001 Al
atom 1.61052098453 7.203972919789999 2.6204294353550006 Al
atom 6.58656484453 7.180348799789999 2.603100470355 Al
atom 4.09104414039 5.60164233769 2.613538234075 Al
atom 9.067088000390001 5.57801821769 2.596209269075 Ga
atom 0.95929747773 2.9362895903900004 7.216168645805002 Al
atom 5.93534133773 2.9126654703900003 7.198839680805002 Al
atom 4.180366616589998 5.7097832457300015 8.174709330045001 O
atom 9.15641047659 5.686159125730002 8.157380365045 O
atom 0.8766827620900001 2.8301978573900004 3.600614643275001 O
atom 5.8527266220900005 2.8065737373900004 3.583285678275 O
atom 3.3581735017100005 1.4330954716900004 3.5934946315150005 O
atom 8.334217361709998 1.4094713516900002 3.576165666515001 O
atom 1.69887587697 7.10688563143 8.181829341805 O
atom 6.67491973697 7.08326151143 8.164500376805 O
atom 2.63268766943 0.07063777433 5.763425695925 O
atom 7.608731529429998 0.047013654329999995 5.746096730925 O
atom 2.40765558861 8.464239723030001 1.166210422035 O
atom 7.383699448610001 8.44061560303 1.148881457035 O
atom 4.876245211430001 4.3307613853300015 1.162141216675 O
atom 9.852289071429999 4.30713726533 1.1448122516750001 O
atom 0.16409804661 4.20411611203 5.7674949012850005 O
atom 5.14014190661 4.18049199203 5.750165936285001 O
atom 0.11181046761 7.072636815469999 1.102325771255 O
atom 5.087854327610001 7.049012695469999 1.0849968062550002 O
atom 4.928026544349999 1.46208602717 5.680471320785 O
atom 9.904070404349998 1.43846190717 5.663142355785 O
atom 2.44621327681 2.7907790140700004 5.687667602705002 O
atom 7.422257136810001 2.7671548940700004 5.670338637705 O
atom 2.59362373515 5.74394382857 1.095129489335 O
atom 7.569667595149998 5.72031970857 1.077800524335 O
atom 4.89056504601 7.1234352120699995 5.830401706630002 O
atom 9.866608906009997 7.0998110920699995 5.813072741630002 O
atom 0.15034773887 1.4116162718500005 1.2644283154900002 O
atom 5.12639159887 1.38799215185 1.2470993504900005 O
atom 2.64522338717 2.85350393635 1.2541430920900005 O
atom 7.621267247169999 2.82987981635 1.2368141270900002 O
atom 2.39568939771 5.681547547570002 5.84068693003 O
atom 7.37173325771 5.657923427570001 5.8233579650300005 O
atom 1.83060612084 1.4535421039000003 7.939785780655001 O
atom 6.806649980840001 1.4299179839000002 7.922456815655002 O
atom 3.2247346773200003 7.085917039540001 3.339956480185 O
atom 8.20077853732 7.06229291954 3.322627515185 O
atom 0.7302621889199998 5.729541123540001 3.350146365885 O
atom 5.70630604892 5.705917003540001 3.3328174008850002 O
atom 4.325078609239998 2.8099180199000005 7.929595894955001 O
atom 9.301122469239997 2.7862938999000004 7.912266929955002 O
atom 4.18848932495 -0.002499261470000004 8.24519865949 O
atom 9.16453318495 -0.02612338147000001 8.227869694490002 O
atom 0.8690030190499999 8.54261568747 3.658609461510001 O
atom 5.84504687905 8.518991567470001 3.6412804965100003 O
atom 3.33694758603 4.272318552169999 3.6546927964700004 O
atom 8.31299144603 4.24869443217 3.6373638314700005 O
atom 1.7205447579699995 4.267797873829999 8.24911532453 O
atom 6.696588617970001 4.244173753829999 8.23178635953 O
atom 4.148726236589998 5.700117325730002 -1.0027297899549996 O
atom 5.924924012359998 5.6084861338200005 9.150735049605 Ga
atom 5.924924012359998 5.6084861338200005 9.150735049605 Ga
atom 6.64327935697 7.07359559143 -1.0129387431950008 O
atom 5.924924012359998 5.6084861338200005 9.150735049605 Ga
atom 6.664948237970001 4.2345078338299995 -0.9456527604700007 O
atom 3.4126798445200004 7.184048446219999 -0.019793801575000103 Al
atom 2.4392959686099998 8.473905643030001 10.343649542035001 O
atom 3.4126798445200004 7.184048446219999 -0.019793801575000103 Al
atom 5.11949470761 7.058678615469999 10.262435926255002 O
atom 3.4126798445200004 7.184048446219999 -0.019793801575000103 Al
atom 2.62526411515 5.75360974857 10.272568609335 O
atom 3.4040042345200003 -1.3574604837800015 9.167179088425002 Al
atom 4.22880531495 8.548675588530001 8.23566488949 O
atom 3.3429141734 4.00326160142 -0.025234059640000694 Al
atom 4.90788559143 4.340427305330001 10.339580336675 O
atom 3.3429141734 4.00326160142 -0.025234059640000694 Al
atom 2.62526411515 5.75360974857 10.272568609335 O
atom 3.3429141734 4.00326160142 -0.025234059640000694 Al
atom 2.67686376717 2.8631698563500003 10.431582212090001 O
atom -0.8273176234099999 5.723741445730003 -0.9854008249550006 O
atom 10.90096787236 5.5848620138200005 9.133406084605001 Al
atom -0.8872778233099989 5.560890958450002 6.39374549533 Al
atom 10.11618576661 4.15686787203 5.732836971285001 O
atom 0.94888015236 5.6321102538200005 9.168064014605001 Al
atom 1.66723549697 7.09721971143 -0.995609778195 O
atom 10.86932749236 5.575196093820001 -0.044033035395 Al
atom -0.09979864857000109 4.35438550533 1.1794701816750002 O
atom 0.94888015236 5.6321102538200005 9.168064014605001 Al
atom 1.6889043779699995 4.2581319538299995 -0.9283237954699999 O
atom 8.38872370452 7.16042432622 -0.03712276657499736 Ga
atom 7.4153398286100005 8.45028152303 10.326320577035 O
atom -1.5633640154799995 7.20767256622 -0.00246483657499752 Ga
atom 10.095538567610001 7.035054495469999 10.245106961255 O
atom 8.38872370452 7.16042432622 -0.03712276657499736 Ga
atom 7.6013079751499975 5.72998562857 10.255239644335001 O
atom 8.380048094520001 -1.3810846037800006 9.149850123425004 Ga
atom 9.20484917495 8.52505146853 8.21833592449 O
atom 8.318958033399998 3.9796374814199993 -0.042563024639999725 Al
atom 9.88392945143 4.3168031853299995 10.322251371675002 O
atom 8.318958033399998 3.9796374814199993 -0.042563024639999725 Al
atom 7.6013079751499975 5.72998562857 10.255239644335001 O
atom 8.318958033399998 3.9796374814199993 -0.042563024639999725 Al
atom 7.6529076271699985 2.8395457363500003 10.41425324709 O
atom 10.82877048209 2.7829496173900004 3.565956713275001 O
atom -0.861103592360001 2.9335634761800002 4.588560895395 Al
atom 10.90796803303 2.9516769840300006 1.7666933779500005 Ga
atom -0.09979864857000109 4.35438550533 1.1794701816750002 O
atom -0.861103592360001 2.9335634761800002 4.588560895395 Al
atom 10.11618576661 4.15686787203 5.732836971285001 O
atom 11.571587915479999 1.3010870037800004 4.546992696575001 Al
atom -0.04801731565000189 1.48571014717 5.697800285785 O
atom 1.6598161854799993 9.899510093780002 4.5721168565750006 Al
atom 0.8286870290499999 -0.008559162530000108 3.668143231510001 O
atom 6.6358600454799985 9.87588597378 4.554787891575001 Ga
atom 5.80473088905 -0.032183282529999246 3.6508142665100003 O
atom 3.3984894917100004 9.984270321690001 3.5839608615150005 O
atom 4.15464756144 -0.27136721926000007 4.5654104351 Ga
atom 3.476074403049999 9.81095069433 1.7850788769900001 Al
atom 2.36733959861 -0.08693512696999939 1.175744192035 O
atom 4.15464756144 -0.27136721926000007 4.5654104351 Ga
atom 2.67300365943 8.621812624330001 5.753891925925 O
atom 4.15464756144 -0.27136721926000007 4.5654104351 Ga
atom 4.968342534349999 10.013260877170001 5.670937550785 O
atom 8.374533351709998 9.96064620169 3.566631896515001 O
atom 9.130691421439998 -0.294991339260001 4.5480814701000005 Al
atom 8.452118263049996 9.78732657433 1.7677499119900002 Ga
atom 7.343383458610001 -0.1105592469700003 1.158415227035 O
atom -1.5402854469500031 1.2833999643299998 1.8119416119900003 Ga
atom 10.10243545887 1.3643680318500004 1.2297703854900002 O
atom 9.130691421439998 -0.294991339260001 4.5480814701000005 Al
atom 7.649047519429998 8.59818850433 5.736562960925 O
atom 9.130691421439998 -0.294991339260001 4.5480814701000005 Al
atom 9.944386394349998 9.98963675717 5.653608585785 O
atom -0.7810803085600018 8.30343175074 4.5732056301 Al
atom 10.82109073905 8.49536744747 3.6239515315100013 O
atom 1.65855988697 -1.4442892185700007 8.191363111805002 O
atom 0.9091095777999998 8.81339749742 9.15553063166 Ga
atom 1.5685719466699997 -1.274758631850001 6.39268896129 Ga
atom 2.67300365943 8.621812624330001 5.753891925925 O
atom 11.56097565667 7.22916797815 6.34849726129 Ga
atom -0.08547881399000268 7.1470593320699995 5.847730671630002 O
atom 0.8774691977999998 8.80373157742 -0.021908488340001142 Ga
atom 2.39897997861 -0.07726920696999962 10.353183312035002 O
atom 0.8774691977999998 8.80373157742 -0.021908488340001142 Ga
atom 0.10313485761 -1.4688721145300017 10.289298661255001 O
atom 0.8371532077999998 0.25255672742 -0.012374718340000257 Ga
atom 0.18198811887 1.4212821918500005 10.441867435490002 O
atom 10.820881307799999 0.21497440742 9.13040647166 Ga
atom -0.7875545350499991 0.021124858529999988 8.262527624490001 O
atom 6.63460374697 -1.4679133385700007 8.174034146805 O
atom 5.8851534378 8.789773377420001 9.13820166666 Al
atom 6.544615806669999 -1.2983827518500002 6.37535999629 Al
atom 7.649047519429998 8.59818850433 5.736562960925 O
atom 5.8535130578 8.780107457420002 -0.03923745334000017 Al
atom 7.375023838610001 -0.10089332697000053 10.335854347035001 O
atom 5.8535130578 8.780107457420002 -0.03923745334000017 Al
atom 5.0791787176100005 -1.4924962345300017 10.271969696255002 O
atom 5.8131970678 0.22893260742 -0.029703683339999287 Al
atom 5.1580319788699995 1.39765807185 10.42453847049 O
atom -0.8849997196099988 5.62526645769 2.630867199075 Ga
atom 10.06389818761 7.025388575469999 1.067667841255 O
atom -0.8849997196099988 5.62526645769 2.630867199075 Ga
atom 10.68234990892 5.682292883540001 3.3154884358850003 O
atom 10.91138519773 2.8890413503900003 7.181510715805002 Al
atom -0.04801731565000189 1.48571014717 5.697800285785 O
atom 10.91138519773 2.8890413503900003 7.181510715805002 Al
atom -0.6509652507600023 2.8335421399000005 7.9469248599550015 O
